Version identifier: 12.10.0.0 | 2019-11-26 | 843d4de
CPXPARAM_WorkMem                                 28672
Tried aggregator 2 times.
Aggregator did 75 substitutions.
Reduced MIP has 243 rows, 270 columns, and 1032 nonzeros.
Reduced MIP has 270 binaries, 0 generals, 0 SOSs, and 0 indicators.
Presolve time = 0,00 sec. (1,05 ticks)
Found incumbent of value 225,000000 after 0,00 sec. (1,63 ticks)
Probing time = 0,00 sec. (0,45 ticks)
Tried aggregator 1 time.
Detecting symmetries...
MIP Presolve eliminated 78 rows and 0 columns.
MIP Presolve added 156 rows and 0 columns.
Reduced MIP has 321 rows, 270 columns, and 1110 nonzeros.
Reduced MIP has 270 binaries, 0 generals, 0 SOSs, and 0 indicators.
Presolve time = 0,00 sec. (1,50 ticks)
Probing time = 0,00 sec. (0,43 ticks)
Clique table members: 732.
MIP emphasis: balance optimality and feasibility.
MIP search method: dynamic search.
Parallel mode: deterministic, using up to 16 threads.
Root relaxation solution time = 0,00 sec. (1,59 ticks)

        Nodes                                         Cuts/
   Node  Left     Objective  IInf  Best Integer    Best Bound    ItCnt     Gap

*     0+    0                          225,0000        0,0000           100,00%
*     0+    0                          156,0000        0,0000           100,00%
*     0+    0                          153,0000        0,0000           100,00%
*     0+    0                          151,0000        0,0000           100,00%
      0     0       75,0000   270      151,0000       75,0000      129   50,33%
      0     0       77,1075   270      151,0000      Cuts: 25      175   48,94%
      0     0       78,2130   270      151,0000      Cuts: 31      234   48,20%
      0     0       78,6367   270      151,0000       Cuts: 6      269   47,92%
      0     0       78,8820   270      151,0000      Cuts: 14      307   47,76%
      0     0       79,0785   270      151,0000      Cuts: 29      338   47,63%
      0     0       88,8133   270      151,0000     Cuts: 171      493   41,18%
*     0+    0                          145,0000       88,8133            38,75%
      0     0       88,9626   270      145,0000      Cuts: 10      508   36,52%
      0     0       89,0833   270      145,0000      Cuts: 14      528   36,52%
      0     2       89,0833   250      145,0000       99,9750      528   31,05%
Elapsed time = 0,21 sec. (128,02 ticks, tree = 0,02 MB, solutions = 5)
*   558   290      integral     0      144,0000      100,3212     7349   30,33%
   2275   953      142,9833    13      144,0000      121,3369    33861   15,74%

Clique cuts applied:  15
Cover cuts applied:  334
Mixed integer rounding cuts applied:  65
Zero-half cuts applied:  30
Gomory fractional cuts applied:  12

Root node processing (before b&c):
  Real time             =    0,21 sec. (127,69 ticks)
Parallel b&c, 16 threads:
  Real time             =    0,70 sec. (464,52 ticks)
  Sync time (average)   =    0,22 sec.
  Wait time (average)   =    0,00 sec.
                          ------------
Total (root+branch&cut) =    0,90 sec. (592,21 ticks)
